(set-logic HORN)
(declare-fun _0 (Int Int) Bool)
(declare-fun _1 (Int Int) Bool)
(declare-fun _2 (Int Int) Bool)
(declare-fun _3 (Int Int) Bool)
(declare-fun _4 (Int Int) Bool)
(declare-fun _5 (Int Int) Bool)
(declare-fun _6 (Int Int) Bool)
(declare-fun _7 (Int Int) Bool)
(declare-fun _8 (Int Int) Bool)
(declare-fun _9 (Int Int) Bool)
(declare-fun _10 (Int Int) Bool)
(declare-fun _11 (Int Int) Bool)
(declare-fun _12 (Int Int) Bool)
(declare-fun _13 (Int Int) Bool)
(declare-fun _14 (Int Int) Bool)
(declare-fun _15 (Int Int) Bool)
(declare-fun _16 (Int Int) Bool)
(declare-fun _17 (Int Int) Bool)
(declare-fun _18 (Int Int) Bool)
(declare-fun _19 (Int Int) Bool)
(declare-fun _20 (Int Int) Bool)
(declare-fun _21 (Int Int) Bool)
(declare-fun _22 (Int Int) Bool)
(declare-fun _23 (Int Int) Bool)
(declare-fun _24 (Int Int) Bool)
(declare-fun _25 (Int Int) Bool)
(declare-fun _26 (Int Int) Bool)
(declare-fun _27 (Int Int) Bool)
(declare-fun _28 (Int Int) Bool)
(declare-fun _29 (Int Int) Bool)
(declare-fun _30 (Int Int) Bool)
(declare-fun _31 (Int Int) Bool)
(declare-fun _32 (Int Int) Bool)
(declare-fun _33 (Int Int) Bool)
(declare-fun _34 (Int Int) Bool)
(declare-fun _35 (Int Int) Bool)
(declare-fun _36 (Int Int) Bool)
(declare-fun _37 (Int Int) Bool)
(declare-fun _38 (Int Int) Bool)
(declare-fun _39 (Int Int) Bool)
(declare-fun _40 (Int Int) Bool)
(declare-fun _41 (Int Int) Bool)
(declare-fun _42 (Int Int) Bool)
(declare-fun _43 (Int Int) Bool)
(declare-fun _44 (Int Int) Bool)
(declare-fun _45 (Int Int) Bool)
(declare-fun _46 (Int Int) Bool)
(declare-fun _47 (Int Int) Bool)
(declare-fun _48 (Int Int) Bool)
(declare-fun _49 (Int Int) Bool)
(declare-fun _50 (Int Int) Bool)
(assert (forall ((time Int))
  (! (forall ((var0 Int))
       (! (=> (and (= time 0) true (= var0 0)) (_0 var0 time)) :weight 0))
     :weight 0)))
(assert (forall ((time Int))
  (! (forall ((var0 Int))
       (! (=> (and (= time 0) true (= var0 0)) (_0 var0 time)) :weight 0))
     :weight 0)))
(assert (forall ((time Int))
  (! (forall ((var0 Int))
       (! (=> (and (>= time 0) (< time 60))
              (=> (_0 var0 time) (_1 (+ var0 1) (+ time 1))))
          :weight 0))
     :weight 0)))
(assert (forall ((time Int))
  (! (forall ((var0 Int))
       (! (=> (and (>= time 0) (< time 60))
              (=> (_1 var0 time) (_2 (+ var0 1) (+ time 1))))
          :weight 0))
     :weight 0)))
(assert (forall ((time Int))
  (! (forall ((var0 Int))
       (! (=> (and (>= time 0) (< time 60))
              (=> (_2 var0 time) (_3 (+ var0 1) (+ time 1))))
          :weight 0))
     :weight 0)))
(assert (forall ((time Int))
  (! (forall ((var0 Int))
       (! (=> (and (>= time 0) (< time 60))
              (=> (_3 var0 time) (_4 (+ var0 1) (+ time 1))))
          :weight 0))
     :weight 0)))
(assert (forall ((time Int))
  (! (forall ((var0 Int))
       (! (=> (and (>= time 0) (< time 60))
              (=> (_4 var0 time) (_5 (+ var0 1) (+ time 1))))
          :weight 0))
     :weight 0)))
(assert (forall ((time Int))
  (! (forall ((var0 Int))
       (! (=> (and (>= time 0) (< time 60))
              (=> (_5 var0 time) (_6 (+ var0 1) (+ time 1))))
          :weight 0))
     :weight 0)))
(assert (forall ((time Int))
  (! (forall ((var0 Int))
       (! (=> (and (>= time 0) (< time 60))
              (=> (_6 var0 time) (_7 (+ var0 1) (+ time 1))))
          :weight 0))
     :weight 0)))
(assert (forall ((time Int))
  (! (forall ((var0 Int))
       (! (=> (and (>= time 0) (< time 60))
              (=> (_7 var0 time) (_8 (+ var0 1) (+ time 1))))
          :weight 0))
     :weight 0)))
(assert (forall ((time Int))
  (! (forall ((var0 Int))
       (! (=> (and (>= time 0) (< time 60))
              (=> (_8 var0 time) (_9 (+ var0 1) (+ time 1))))
          :weight 0))
     :weight 0)))
(assert (forall ((time Int))
  (! (forall ((var0 Int))
       (! (=> (and (>= time 0) (< time 60))
              (=> (_9 var0 time) (_10 (+ var0 1) (+ time 1))))
          :weight 0))
     :weight 0)))
(assert (forall ((time Int))
  (! (forall ((var0 Int))
       (! (=> (and (>= time 0) (< time 60))
              (=> (_10 var0 time) (_11 (+ var0 1) (+ time 1))))
          :weight 0))
     :weight 0)))
(assert (forall ((time Int))
  (! (forall ((var0 Int))
       (! (=> (and (>= time 0) (< time 60))
              (=> (_11 var0 time) (_12 (+ var0 1) (+ time 1))))
          :weight 0))
     :weight 0)))
(assert (forall ((time Int))
  (! (forall ((var0 Int))
       (! (=> (and (>= time 0) (< time 60))
              (=> (_12 var0 time) (_13 (+ var0 1) (+ time 1))))
          :weight 0))
     :weight 0)))
(assert (forall ((time Int))
  (! (forall ((var0 Int))
       (! (=> (and (>= time 0) (< time 60))
              (=> (_13 var0 time) (_14 (+ var0 1) (+ time 1))))
          :weight 0))
     :weight 0)))
(assert (forall ((time Int))
  (! (forall ((var0 Int))
       (! (=> (and (>= time 0) (< time 60))
              (=> (_14 var0 time) (_15 (+ var0 1) (+ time 1))))
          :weight 0))
     :weight 0)))
(assert (forall ((time Int))
  (! (forall ((var0 Int))
       (! (=> (and (>= time 0) (< time 60))
              (=> (_15 var0 time) (_16 (+ var0 1) (+ time 1))))
          :weight 0))
     :weight 0)))
(assert (forall ((time Int))
  (! (forall ((var0 Int))
       (! (=> (and (>= time 0) (< time 60))
              (=> (_16 var0 time) (_17 (+ var0 1) (+ time 1))))
          :weight 0))
     :weight 0)))
(assert (forall ((time Int))
  (! (forall ((var0 Int))
       (! (=> (and (>= time 0) (< time 60))
              (=> (_17 var0 time) (_18 (+ var0 1) (+ time 1))))
          :weight 0))
     :weight 0)))
(assert (forall ((time Int))
  (! (forall ((var0 Int))
       (! (=> (and (>= time 0) (< time 60))
              (=> (_18 var0 time) (_19 (+ var0 1) (+ time 1))))
          :weight 0))
     :weight 0)))
(assert (forall ((time Int))
  (! (forall ((var0 Int))
       (! (=> (and (>= time 0) (< time 60))
              (=> (_19 var0 time) (_20 (+ var0 1) (+ time 1))))
          :weight 0))
     :weight 0)))
(assert (forall ((time Int))
  (! (forall ((var0 Int))
       (! (=> (and (>= time 0) (< time 60))
              (=> (_20 var0 time) (_21 (+ var0 1) (+ time 1))))
          :weight 0))
     :weight 0)))
(assert (forall ((time Int))
  (! (forall ((var0 Int))
       (! (=> (and (>= time 0) (< time 60))
              (=> (_21 var0 time) (_22 (+ var0 1) (+ time 1))))
          :weight 0))
     :weight 0)))
(assert (forall ((time Int))
  (! (forall ((var0 Int))
       (! (=> (and (>= time 0) (< time 60))
              (=> (_22 var0 time) (_23 (+ var0 1) (+ time 1))))
          :weight 0))
     :weight 0)))
(assert (forall ((time Int))
  (! (forall ((var0 Int))
       (! (=> (and (>= time 0) (< time 60))
              (=> (_23 var0 time) (_24 (+ var0 1) (+ time 1))))
          :weight 0))
     :weight 0)))
(assert (forall ((time Int))
  (! (forall ((var0 Int))
       (! (=> (and (>= time 0) (< time 60))
              (=> (_24 var0 time) (_25 (+ var0 1) (+ time 1))))
          :weight 0))
     :weight 0)))
(assert (forall ((time Int))
  (! (forall ((var0 Int))
       (! (=> (and (>= time 0) (< time 60))
              (=> (_25 var0 time) (_26 (+ var0 1) (+ time 1))))
          :weight 0))
     :weight 0)))
(assert (forall ((time Int))
  (! (forall ((var0 Int))
       (! (=> (and (>= time 0) (< time 60))
              (=> (_26 var0 time) (_27 (+ var0 1) (+ time 1))))
          :weight 0))
     :weight 0)))
(assert (forall ((time Int))
  (! (forall ((var0 Int))
       (! (=> (and (>= time 0) (< time 60))
              (=> (_27 var0 time) (_28 (+ var0 1) (+ time 1))))
          :weight 0))
     :weight 0)))
(assert (forall ((time Int))
  (! (forall ((var0 Int))
       (! (=> (and (>= time 0) (< time 60))
              (=> (_28 var0 time) (_29 (+ var0 1) (+ time 1))))
          :weight 0))
     :weight 0)))
(assert (forall ((time Int))
  (! (forall ((var0 Int))
       (! (=> (and (>= time 0) (< time 60))
              (=> (_29 var0 time) (_30 (+ var0 1) (+ time 1))))
          :weight 0))
     :weight 0)))
(assert (forall ((time Int))
  (! (forall ((var0 Int))
       (! (=> (and (>= time 0) (< time 60))
              (=> (_30 var0 time) (_31 (+ var0 1) (+ time 1))))
          :weight 0))
     :weight 0)))
(assert (forall ((time Int))
  (! (forall ((var0 Int))
       (! (=> (and (>= time 0) (< time 60))
              (=> (_31 var0 time) (_32 (+ var0 1) (+ time 1))))
          :weight 0))
     :weight 0)))
(assert (forall ((time Int))
  (! (forall ((var0 Int))
       (! (=> (and (>= time 0) (< time 60))
              (=> (_32 var0 time) (_33 (+ var0 1) (+ time 1))))
          :weight 0))
     :weight 0)))
(assert (forall ((time Int))
  (! (forall ((var0 Int))
       (! (=> (and (>= time 0) (< time 60))
              (=> (_33 var0 time) (_34 (+ var0 1) (+ time 1))))
          :weight 0))
     :weight 0)))
(assert (forall ((time Int))
  (! (forall ((var0 Int))
       (! (=> (and (>= time 0) (< time 60))
              (=> (_34 var0 time) (_35 (+ var0 1) (+ time 1))))
          :weight 0))
     :weight 0)))
(assert (forall ((time Int))
  (! (forall ((var0 Int))
       (! (=> (and (>= time 0) (< time 60))
              (=> (_35 var0 time) (_36 (+ var0 1) (+ time 1))))
          :weight 0))
     :weight 0)))
(assert (forall ((time Int))
  (! (forall ((var0 Int))
       (! (=> (and (>= time 0) (< time 60))
              (=> (_36 var0 time) (_37 (+ var0 1) (+ time 1))))
          :weight 0))
     :weight 0)))
(assert (forall ((time Int))
  (! (forall ((var0 Int))
       (! (=> (and (>= time 0) (< time 60))
              (=> (_37 var0 time) (_38 (+ var0 1) (+ time 1))))
          :weight 0))
     :weight 0)))
(assert (forall ((time Int))
  (! (forall ((var0 Int))
       (! (=> (and (>= time 0) (< time 60))
              (=> (_38 var0 time) (_39 (+ var0 1) (+ time 1))))
          :weight 0))
     :weight 0)))
(assert (forall ((time Int))
  (! (forall ((var0 Int))
       (! (=> (and (>= time 0) (< time 60))
              (=> (_39 var0 time) (_40 (+ var0 1) (+ time 1))))
          :weight 0))
     :weight 0)))
(assert (forall ((time Int))
  (! (forall ((var0 Int))
       (! (=> (and (>= time 0) (< time 60))
              (=> (_40 var0 time) (_41 (+ var0 1) (+ time 1))))
          :weight 0))
     :weight 0)))
(assert (forall ((time Int))
  (! (forall ((var0 Int))
       (! (=> (and (>= time 0) (< time 60))
              (=> (_41 var0 time) (_42 (+ var0 1) (+ time 1))))
          :weight 0))
     :weight 0)))
(assert (forall ((time Int))
  (! (forall ((var0 Int))
       (! (=> (and (>= time 0) (< time 60))
              (=> (_42 var0 time) (_43 (+ var0 1) (+ time 1))))
          :weight 0))
     :weight 0)))
(assert (forall ((time Int))
  (! (forall ((var0 Int))
       (! (=> (and (>= time 0) (< time 60))
              (=> (_43 var0 time) (_44 (+ var0 1) (+ time 1))))
          :weight 0))
     :weight 0)))
(assert (forall ((time Int))
  (! (forall ((var0 Int))
       (! (=> (and (>= time 0) (< time 60))
              (=> (_44 var0 time) (_45 (+ var0 1) (+ time 1))))
          :weight 0))
     :weight 0)))
(assert (forall ((time Int))
  (! (forall ((var0 Int))
       (! (=> (and (>= time 0) (< time 60))
              (=> (_45 var0 time) (_46 (+ var0 1) (+ time 1))))
          :weight 0))
     :weight 0)))
(assert (forall ((time Int))
  (! (forall ((var0 Int))
       (! (=> (and (>= time 0) (< time 60))
              (=> (_46 var0 time) (_47 (+ var0 1) (+ time 1))))
          :weight 0))
     :weight 0)))
(assert (forall ((time Int))
  (! (forall ((var0 Int))
       (! (=> (and (>= time 0) (< time 60))
              (=> (_47 var0 time) (_48 (+ var0 1) (+ time 1))))
          :weight 0))
     :weight 0)))
(assert (forall ((time Int))
  (! (forall ((var0 Int))
       (! (=> (and (>= time 0) (< time 60))
              (=> (_48 var0 time) (_49 (+ var0 1) (+ time 1))))
          :weight 0))
     :weight 0)))
(assert (forall ((time Int))
  (! (forall ((var0 Int))
       (! (=> (and (>= time 0) (< time 60))
              (=> (_49 var0 time) (_50 (+ var0 1) (+ time 1))))
          :weight 0))
     :weight 0)))
(assert (forall ((time Int))
  (! (forall ((var0 Int))
       (! (=> (and (>= time 0) (< time 59)) (= (_49 var0 time) (= var0 49)))
          :weight 0))
     :weight 0)))
(check-sat)
